Traveling Salesman Problem/TSP_generados/Aleatorio1621103467_15.tsp
NAME: Aleatorio1621103467_15.tsp
COMMENT: Randomly generated scenario
TYPE: TSP
DIMENSION: 15
EDGE_WEIGHT_TYPE: ATT
NODE_COORD_SECTION
1 46.06 9.85
2 10.6 43.75
3 28.5 14.23
4 43.98 45.61
5 22.55 43.62
6 46.33 31.78
7 33.89 6.47
8 18.72 18.8
9 48.5 48.68
10 0.79 21.79
11 0.97 48.93
12 6.57 24.03
13 39.68 1.08
14 2.41 34.04
15 26.44 4.73
