Traveling Salesman Problem/TSP_generados/Aleatorio1621103467_15.opt.tour
NAME: Aleatorio1621103467_15.opt.tour
COMMENT: Optimal solution for Aleatorio1621103467_15 (182.50691003039958)
TYPE: TOUR
DIMENSION: 15
TOUR_SECTION
1 13 7 15 3 8 12 10 14 11 2 5 4 9 6
-1
EOF
